TC_ILP/motion_vectors_dfg__7_1.0.lp
Minimize
M1 + M2
Subject To
x0,2 + x0,3 + x0,4 + x0,5 + x0,6 = 1
x1,3 + x1,4 + x1,5 + x1,6 = 1
x2,2 + x2,3 + x2,4 + x2,5 = 1
x3,1 + x3,2 + x3,3 + x3,4 = 1
x4,4 + x4,5 + x4,6 = 1
x5,5 + x5,6 = 1
x6,6 = 1
x7,5 = 1
x8,4 = 1
x9,3 = 1
x10,2 = 1
x11,3 + x11,4 + x11,5 + x11,6 = 1
x12,4 + x12,5 + x12,6 = 1
x13,5 + x13,6 = 1
x14,4 + x14,5 = 1
x15,3 + x15,4 = 1
x16,2 + x16,3 = 1
x17,1 = 1
x18,4 + x18,5 + x18,6 = 1
x19,5 + x19,6 = 1
x20,6 = 1
x21,5 = 1
x22,4 = 1
x23,3 = 1
x24,2 = 1
x25,3 + x25,4 + x25,5 + x25,6 = 1
x26,4 + x26,5 + x26,6 = 1
x27,5 + x27,6 = 1
x28,4 + x28,5 = 1
x29,3 + x29,4 = 1
x30,2 + x30,3 = 1
x31,1 = 1
x3,1 + x17,1 + x31,1 - M2 <= 0
x2,2 + x3,2 + x10,2 + x16,2 + x24,2 + x30,2 - M2 <= 0
x2,3 + x3,3 + x9,3 + x15,3 + x16,3 + x23,3 + x29,3 + x30,3 - M2 <= 0
x0,3 + x0,2 + x1,3 + x1,2 + x11,3 + x11,2 + x25,3 + x25,2 - M1 <= 0
x2,4 + x3,4 + x8,4 + x14,4 + x15,4 + x22,4 + x28,4 + x29,4 - M2 <= 0
x0,4 + x0,3 + x1,4 + x1,3 + x4,4 + x4,3 + x11,4 + x11,3 + x12,4 + x12,3 + x18,4 + x18,3 + x25,4 + x25,3 + x26,4 + x26,3 - M1 <= 0
x2,5 + x7,5 + x14,5 + x21,5 + x28,5 - M2 <= 0
x0,5 + x0,4 + x1,5 + x1,4 + x4,5 + x4,4 + x5,5 + x5,4 + x11,5 + x11,4 + x12,5 + x12,4 + x13,5 + x13,4 + x18,5 + x18,4 + x19,5 + x19,4 + x25,5 + x25,4 + x26,5 + x26,4 + x27,5 + x27,4 - M1 <= 0
x0,6 + x0,5 + x1,6 + x1,5 + x4,6 + x4,5 + x5,6 + x5,5 + x6,6 + x6,5 + x11,6 + x11,5 + x12,6 + x12,5 + x13,6 + x13,5 + x18,6 + x18,5 + x19,6 + x19,5 + x20,6 + x20,5 + x25,6 + x25,5 + x26,6 + x26,5 + x27,6 + x27,5 - M1 <= 0
x0,7 + x0,6 + x1,7 + x1,6 + x4,7 + x4,6 + x5,7 + x5,6 + x6,7 + x6,6 + x11,7 + x11,6 + x12,7 + x12,6 + x13,7 + x13,6 + x18,7 + x18,6 + x19,7 + x19,6 + x20,7 + x20,6 + x25,7 + x25,6 + x26,7 + x26,6 + x27,7 + x27,6 - M1 <= 0
2 x2,2 + 3 x2,3 + 4 x2,4 + 5 x2,5 - 3 x1,3 - 4 x1,4 - 5 x1,5 - 6 x1,6 <= -1
1 x3,1 + 2 x3,2 + 3 x3,3 + 4 x3,4 - 2 x0,2 - 3 x0,3 - 4 x0,4 - 5 x0,5 - 6 x0,6 <= -1
1 x3,1 + 2 x3,2 + 3 x3,3 + 4 x3,4 - 2 x2,2 - 3 x2,3 - 4 x2,4 - 5 x2,5 <= -1
5 x7,5 - 6 x6,6 <= -1
4 x8,4 - 5 x5,5 - 6 x5,6 <= -1
4 x8,4 - 5 x7,5 <= -1
3 x9,3 - 4 x4,4 - 5 x4,5 - 6 x4,6 <= -1
3 x9,3 - 4 x8,4 <= -1
2 x10,2 - 3 x9,3 <= -1
4 x14,4 + 5 x14,5 - 5 x13,5 - 6 x13,6 <= -1
3 x15,3 + 4 x15,4 - 4 x12,4 - 5 x12,5 - 6 x12,6 <= -1
3 x15,3 + 4 x15,4 - 4 x14,4 - 5 x14,5 <= -1
2 x16,2 + 3 x16,3 - 3 x11,3 - 4 x11,4 - 5 x11,5 - 6 x11,6 <= -1
2 x16,2 + 3 x16,3 - 3 x15,3 - 4 x15,4 <= -1
1 x17,1 - 2 x10,2 <= -1
1 x17,1 - 2 x16,2 - 3 x16,3 <= -1
5 x21,5 - 6 x20,6 <= -1
4 x22,4 - 5 x19,5 - 6 x19,6 <= -1
4 x22,4 - 5 x21,5 <= -1
3 x23,3 - 4 x18,4 - 5 x18,5 - 6 x18,6 <= -1
3 x23,3 - 4 x22,4 <= -1
2 x24,2 - 3 x23,3 <= -1
4 x28,4 + 5 x28,5 - 5 x27,5 - 6 x27,6 <= -1
3 x29,3 + 4 x29,4 - 4 x26,4 - 5 x26,5 - 6 x26,6 <= -1
3 x29,3 + 4 x29,4 - 4 x28,4 - 5 x28,5 <= -1
2 x30,2 + 3 x30,3 - 3 x25,3 - 4 x25,4 - 5 x25,5 - 6 x25,6 <= -1
2 x30,2 + 3 x30,3 - 3 x29,3 - 4 x29,4 <= -1
1 x31,1 - 2 x24,2 <= -1
1 x31,1 - 2 x30,2 - 3 x30,3 <= -1
Bounds
0 <= x0,2 <= 1
0 <= x0,3 <= 1
0 <= x0,4 <= 1
0 <= x0,5 <= 1
0 <= x0,6 <= 1
0 <= x1,3 <= 1
0 <= x1,4 <= 1
0 <= x1,5 <= 1
0 <= x1,6 <= 1
0 <= x2,2 <= 1
0 <= x2,3 <= 1
0 <= x2,4 <= 1
0 <= x2,5 <= 1
0 <= x3,1 <= 1
0 <= x3,2 <= 1
0 <= x3,3 <= 1
0 <= x3,4 <= 1
0 <= x4,4 <= 1
0 <= x4,5 <= 1
0 <= x4,6 <= 1
0 <= x5,5 <= 1
0 <= x5,6 <= 1
0 <= x6,6 <= 1
0 <= x7,5 <= 1
0 <= x8,4 <= 1
0 <= x9,3 <= 1
0 <= x10,2 <= 1
0 <= x11,3 <= 1
0 <= x11,4 <= 1
0 <= x11,5 <= 1
0 <= x11,6 <= 1
0 <= x12,4 <= 1
0 <= x12,5 <= 1
0 <= x12,6 <= 1
0 <= x13,5 <= 1
0 <= x13,6 <= 1
0 <= x14,4 <= 1
0 <= x14,5 <= 1
0 <= x15,3 <= 1
0 <= x15,4 <= 1
0 <= x16,2 <= 1
0 <= x16,3 <= 1
0 <= x17,1 <= 1
0 <= x18,4 <= 1
0 <= x18,5 <= 1
0 <= x18,6 <= 1
0 <= x19,5 <= 1
0 <= x19,6 <= 1
0 <= x20,6 <= 1
0 <= x21,5 <= 1
0 <= x22,4 <= 1
0 <= x23,3 <= 1
0 <= x24,2 <= 1
0 <= x25,3 <= 1
0 <= x25,4 <= 1
0 <= x25,5 <= 1
0 <= x25,6 <= 1
0 <= x26,4 <= 1
0 <= x26,5 <= 1
0 <= x26,6 <= 1
0 <= x27,5 <= 1
0 <= x27,6 <= 1
0 <= x28,4 <= 1
0 <= x28,5 <= 1
0 <= x29,3 <= 1
0 <= x29,4 <= 1
0 <= x30,2 <= 1
0 <= x30,3 <= 1
0 <= x31,1 <= 1
M1 >= 1
M2 >= 1
Generals
x0,2
x0,3
x0,4
x0,5
x0,6
x1,3
x1,4
x1,5
x1,6
x2,2
x2,3
x2,4
x2,5
x3,1
x3,2
x3,3
x3,4
x4,4
x4,5
x4,6
x5,5
x5,6
x6,6
x7,5
x8,4
x9,3
x10,2
x11,3
x11,4
x11,5
x11,6
x12,4
x12,5
x12,6
x13,5
x13,6
x14,4
x14,5
x15,3
x15,4
x16,2
x16,3
x17,1
x18,4
x18,5
x18,6
x19,5
x19,6
x20,6
x21,5
x22,4
x23,3
x24,2
x25,3
x25,4
x25,5
x25,6
x26,4
x26,5
x26,6
x27,5
x27,6
x28,4
x28,5
x29,3
x29,4
x30,2
x30,3
x31,1
M1
M2
End
