TC_ILP/motion_vectors_dfg__7_1.0.sol
<?xml version = "1.0" encoding="UTF-8" standalone="yes"?>
<CPLEXSolution version="1.2">
 <header
   problemName="motion_vectors_dfg__7_1.0.lp"
   solutionName="incumbent"
   solutionIndex="-1"
   objectiveValue="11"
   solutionTypeValue="3"
   solutionTypeString="primal"
   solutionStatusValue="101"
   solutionStatusString="integer optimal solution"
   solutionMethodString="mip"
   primalFeasible="1"
   dualFeasible="1"
   MIPNodes="0"
   MIPIterations="21"
   writeLevel="1"/>
 <quality
   epInt="1.0000000000000001e-05"
   epRHS="9.9999999999999995e-07"
   maxIntInfeas="0"
   maxPrimalInfeas="0"
   maxX="7"
   maxSlack="5"/>
 <linearConstraints>
  <constraint name="c1" index="0" slack="0"/>
  <constraint name="c2" index="1" slack="0"/>
  <constraint name="c3" index="2" slack="0"/>
  <constraint name="c4" index="3" slack="0"/>
  <constraint name="c5" index="4" slack="0"/>
  <constraint name="c6" index="5" slack="0"/>
  <constraint name="c7" index="6" slack="0"/>
  <constraint name="c8" index="7" slack="0"/>
  <constraint name="c9" index="8" slack="0"/>
  <constraint name="c10" index="9" slack="0"/>
  <constraint name="c11" index="10" slack="0"/>
  <constraint name="c12" index="11" slack="0"/>
  <constraint name="c13" index="12" slack="0"/>
  <constraint name="c14" index="13" slack="0"/>
  <constraint name="c15" index="14" slack="0"/>
  <constraint name="c16" index="15" slack="0"/>
  <constraint name="c17" index="16" slack="0"/>
  <constraint name="c18" index="17" slack="0"/>
  <constraint name="c19" index="18" slack="0"/>
  <constraint name="c20" index="19" slack="0"/>
  <constraint name="c21" index="20" slack="0"/>
  <constraint name="c22" index="21" slack="0"/>
  <constraint name="c23" index="22" slack="0"/>
  <constraint name="c24" index="23" slack="0"/>
  <constraint name="c25" index="24" slack="0"/>
  <constraint name="c26" index="25" slack="0"/>
  <constraint name="c27" index="26" slack="0"/>
  <constraint name="c28" index="27" slack="0"/>
  <constraint name="c29" index="28" slack="0"/>
  <constraint name="c30" index="29" slack="0"/>
  <constraint name="c31" index="30" slack="0"/>
  <constraint name="c32" index="31" slack="0"/>
  <constraint name="c33" index="32" slack="1"/>
  <constraint name="c34" index="33" slack="0"/>
  <constraint name="c35" index="34" slack="0"/>
  <constraint name="c36" index="35" slack="5"/>
  <constraint name="c37" index="36" slack="0"/>
  <constraint name="c38" index="37" slack="1"/>
  <constraint name="c39" index="38" slack="1"/>
  <constraint name="c40" index="39" slack="1"/>
  <constraint name="c41" index="40" slack="0"/>
  <constraint name="c42" index="41" slack="1"/>
  <constraint name="c43" index="42" slack="1"/>
  <constraint name="c44" index="43" slack="0"/>
  <constraint name="c45" index="44" slack="0"/>
  <constraint name="c46" index="45" slack="0"/>
  <constraint name="c47" index="46" slack="1"/>
  <constraint name="c48" index="47" slack="0"/>
  <constraint name="c49" index="48" slack="0"/>
  <constraint name="c50" index="49" slack="0"/>
  <constraint name="c51" index="50" slack="0"/>
  <constraint name="c52" index="51" slack="1"/>
  <constraint name="c53" index="52" slack="0"/>
  <constraint name="c54" index="53" slack="0"/>
  <constraint name="c55" index="54" slack="0"/>
  <constraint name="c56" index="55" slack="0"/>
  <constraint name="c57" index="56" slack="0"/>
  <constraint name="c58" index="57" slack="0"/>
  <constraint name="c59" index="58" slack="0"/>
  <constraint name="c60" index="59" slack="1"/>
  <constraint name="c61" index="60" slack="0"/>
  <constraint name="c62" index="61" slack="0"/>
  <constraint name="c63" index="62" slack="0"/>
  <constraint name="c64" index="63" slack="0"/>
  <constraint name="c65" index="64" slack="0"/>
  <constraint name="c66" index="65" slack="0"/>
  <constraint name="c67" index="66" slack="0"/>
  <constraint name="c68" index="67" slack="0"/>
  <constraint name="c69" index="68" slack="0"/>
  <constraint name="c70" index="69" slack="0"/>
  <constraint name="c71" index="70" slack="1"/>
 </linearConstraints>
 <variables>
  <variable name="M1" index="0" value="7"/>
  <variable name="M2" index="1" value="4"/>
  <variable name="x0,2" index="2" value="1"/>
  <variable name="x0,3" index="3" value="-0"/>
  <variable name="x0,4" index="4" value="-0"/>
  <variable name="x0,5" index="5" value="-0"/>
  <variable name="x0,6" index="6" value="-0"/>
  <variable name="x1,3" index="7" value="-0"/>
  <variable name="x1,4" index="8" value="1"/>
  <variable name="x1,5" index="9" value="-0"/>
  <variable name="x1,6" index="10" value="0"/>
  <variable name="x2,2" index="11" value="1"/>
  <variable name="x2,3" index="12" value="-0"/>
  <variable name="x2,4" index="13" value="0"/>
  <variable name="x2,5" index="14" value="-0"/>
  <variable name="x3,1" index="15" value="1"/>
  <variable name="x3,2" index="16" value="0"/>
  <variable name="x3,3" index="17" value="0"/>
  <variable name="x3,4" index="18" value="0"/>
  <variable name="x4,4" index="19" value="1"/>
  <variable name="x4,5" index="20" value="-0"/>
  <variable name="x4,6" index="21" value="-0"/>
  <variable name="x5,5" index="22" value="0"/>
  <variable name="x5,6" index="23" value="1"/>
  <variable name="x6,6" index="24" value="1"/>
  <variable name="x7,5" index="25" value="1"/>
  <variable name="x8,4" index="26" value="1"/>
  <variable name="x9,3" index="27" value="1"/>
  <variable name="x10,2" index="28" value="1"/>
  <variable name="x11,3" index="29" value="1"/>
  <variable name="x11,4" index="30" value="-0"/>
  <variable name="x11,5" index="31" value="-0"/>
  <variable name="x11,6" index="32" value="-0"/>
  <variable name="x12,4" index="33" value="1"/>
  <variable name="x12,5" index="34" value="-0"/>
  <variable name="x12,6" index="35" value="0"/>
  <variable name="x13,5" index="36" value="0"/>
  <variable name="x13,6" index="37" value="1"/>
  <variable name="x14,4" index="38" value="1"/>
  <variable name="x14,5" index="39" value="0"/>
  <variable name="x15,3" index="40" value="1"/>
  <variable name="x15,4" index="41" value="0"/>
  <variable name="x16,2" index="42" value="1"/>
  <variable name="x16,3" index="43" value="0"/>
  <variable name="x17,1" index="44" value="1"/>
  <variable name="x18,4" index="45" value="1"/>
  <variable name="x18,5" index="46" value="-0"/>
  <variable name="x18,6" index="47" value="-0"/>
  <variable name="x19,5" index="48" value="0"/>
  <variable name="x19,6" index="49" value="1"/>
  <variable name="x20,6" index="50" value="1"/>
  <variable name="x21,5" index="51" value="1"/>
  <variable name="x22,4" index="52" value="1"/>
  <variable name="x23,3" index="53" value="1"/>
  <variable name="x24,2" index="54" value="1"/>
  <variable name="x25,3" index="55" value="0"/>
  <variable name="x25,4" index="56" value="1"/>
  <variable name="x25,5" index="57" value="-0"/>
  <variable name="x25,6" index="58" value="-0"/>
  <variable name="x26,4" index="59" value="0"/>
  <variable name="x26,5" index="60" value="1"/>
  <variable name="x26,6" index="61" value="-0"/>
  <variable name="x27,5" index="62" value="0"/>
  <variable name="x27,6" index="63" value="1"/>
  <variable name="x28,4" index="64" value="0"/>
  <variable name="x28,5" index="65" value="1"/>
  <variable name="x29,3" index="66" value="0"/>
  <variable name="x29,4" index="67" value="1"/>
  <variable name="x30,2" index="68" value="0"/>
  <variable name="x30,3" index="69" value="1"/>
  <variable name="x31,1" index="70" value="1"/>
  <variable name="x1,2" index="71" value="0"/>
  <variable name="x11,2" index="72" value="0"/>
  <variable name="x25,2" index="73" value="0"/>
  <variable name="x4,3" index="74" value="0"/>
  <variable name="x12,3" index="75" value="0"/>
  <variable name="x18,3" index="76" value="0"/>
  <variable name="x26,3" index="77" value="0"/>
  <variable name="x5,4" index="78" value="0"/>
  <variable name="x13,4" index="79" value="0"/>
  <variable name="x19,4" index="80" value="0"/>
  <variable name="x27,4" index="81" value="0"/>
  <variable name="x6,5" index="82" value="0"/>
  <variable name="x20,5" index="83" value="0"/>
  <variable name="x0,7" index="84" value="0"/>
  <variable name="x1,7" index="85" value="0"/>
  <variable name="x4,7" index="86" value="0"/>
  <variable name="x5,7" index="87" value="0"/>
  <variable name="x6,7" index="88" value="0"/>
  <variable name="x11,7" index="89" value="0"/>
  <variable name="x12,7" index="90" value="0"/>
  <variable name="x13,7" index="91" value="0"/>
  <variable name="x18,7" index="92" value="0"/>
  <variable name="x19,7" index="93" value="0"/>
  <variable name="x20,7" index="94" value="0"/>
  <variable name="x25,7" index="95" value="0"/>
  <variable name="x26,7" index="96" value="0"/>
  <variable name="x27,7" index="97" value="0"/>
 </variables>
</CPLEXSolution>
